50

100 9 176
99 17 255
99 28 180
97 38 283
97 22 193
96 14 326
96 27 171
96 14 267
93 23 283
93 10 301
91 7 254
84 42 155
83 11 305
81 32 333
79 34 212
78 30 325
77 14 225
74 28 174
71 12 257
67 33 206
66 21 354
63 3 353
62 18 158
61 1 202
61 11 357
61 25 288
59 24 345
59 14 233
59 26 245
58 25 328
57 14 323
56 6 360
54 25 313
54 16 177
53 8 187
53 27 231
51 13 306
50 13 179
49 15 154
48 24 317
45 11 251
45 9 190
45 4 199
40 19 359
40 16 294
39 19 337
39 1 333
34 12 228
32 1 332
30 10 322
